Crypto/instances/samples/hf_n23/hf_n23_cnf10.cnf
c Parameters to produce the formula :
c key 1 2 -3 4 5 6 -7 -8 9 10 11 -12 13 -14 15 -16 17 18 -19 20 -21 22 -23 -24 -25 -26 -27 28 -29 30 -31 -32
c plaintext 1 2 -3 4 5 -6 -7 -8 9 10 -11 12 -13 -14 -15 -16
c ciphertext 1 -2 -3 -4 5 -6 -7 8 9 10 -11 -12 13 14 15 16
c 
p cnf 23 88
-6 8 -5 7 18 0
1 4 -2 0
-7 8 -5 0
-14 13 -15 0
-2 4 3 0
-12 -9 10 11 0
-7 5 8 6 18 0
-1 -4 -3 0
-12 -11 10 0
-3 4 21 -2 0
1 -4 -2 -17 -3 0
5 7 6 -18 0
15 -20 -16 -13 0
5 7 8 0
-12 -9 -10 11 0
-2 1 17 3 0
15 -14 -20 -16 0
-4 -3 2 0
-4 21 3 2 0
15 16 -14 0
1 -4 -2 -21 -3 0
1 17 4 3 0
-4 3 -1 -17 2 0
-22 8 6 -5 7 0
-9 -11 10 0
1 21 3 2 0
15 16 -13 0
12 19 10 11 0
-1 -3 -2 0
1 -4 2 0
16 -13 -14 0
-7 -6 8 0
-12 9 10 0
12 -9 -11 -23 0
-4 -2 3 -1 -21 0
-16 -14 -15 0
12 -10 -11 -23 0
12 -9 10 11 23 0
1 -4 3 0
7 -8 6 0
4 -3 2 0
-1 -4 17 -2 0
7 -8 -6 -18 0
9 19 11 -10 0
16 -14 -15 0
5 -6 8 0
15 16 -20 14 0
-8 -5 0
5 7 -6 22 0
5 7 -8 -18 0
-20 16 14 13 0
-16 13 0
-7 -8 22 6 0
-16 -13 14 0
-7 -6 -5 0
-12 9 -23 11 0
5 -8 6 0
-7 -8 -6 0
17 4 3 2 0
16 13 -15 0
-16 14 -15 0
12 -9 19 10 0
15 -20 14 -13 0
-12 19 11 -10 0
15 -14 -13 0
14 -15 16 -13 20 0
9 10 11 -23 0
12 9 -10 0
-1 -3 2 0
-12 -9 19 -10 0
12 9 10 11 0
7 -6 8 22 0
7 6 8 -18 0
15 14 -16 0
-9 12 -11 -19 -10 0
12 -11 10 -19 9 0
-12 -9 -11 0
-1 4 0
6 -18 8 -5 0
-12 9 -10 -11 0
-7 5 -22 8 6 0
12 -11 10 23 9 0
-4 17 -2 3 0
-7 6 -5 0
-12 10 11 -23 0
14 13 -15 0
12 -10 11 0
12 9 19 11 0